(set-info :smt-lib-version 2.6)
(set-logic QF_AX)
(set-info :source |
Benchmarks used in the followin paper:
Big proof engines as little proof engines: new results on rewrite-based satisfiability procedure
Alessandro Armando, Maria Paola Bonacina, Silvio Ranise, Stephan Schulz. 
PDPAR'05
http://www.ai.dist.unige.it/pdpar05/


|)
(set-info :category "crafted")
(set-info :status unsat)
(declare-sort Index 0)
(declare-sort Element 0)
(declare-fun a_1167 () (Array Index Element))
(declare-fun a_1169 () (Array Index Element))
(declare-fun a_1171 () (Array Index Element))
(declare-fun a_1173 () (Array Index Element))
(declare-fun a_1175 () (Array Index Element))
(declare-fun a_1177 () (Array Index Element))
(declare-fun a_1179 () (Array Index Element))
(declare-fun a_1181 () (Array Index Element))
(declare-fun a_1183 () (Array Index Element))
(declare-fun a_1185 () (Array Index Element))
(declare-fun a_1187 () (Array Index Element))
(declare-fun a_1189 () (Array Index Element))
(declare-fun a_1191 () (Array Index Element))
(declare-fun a_1193 () (Array Index Element))
(declare-fun a_1195 () (Array Index Element))
(declare-fun a_1197 () (Array Index Element))
(declare-fun a_1199 () (Array Index Element))
(declare-fun a_1201 () (Array Index Element))
(declare-fun a_1203 () (Array Index Element))
(declare-fun a_1205 () (Array Index Element))
(declare-fun a_1206 () (Array Index Element))
(declare-fun a_1207 () (Array Index Element))
(declare-fun a_1209 () (Array Index Element))
(declare-fun a_1211 () (Array Index Element))
(declare-fun a_1213 () (Array Index Element))
(declare-fun a_1215 () (Array Index Element))
(declare-fun a_1217 () (Array Index Element))
(declare-fun a_1219 () (Array Index Element))
(declare-fun a_1221 () (Array Index Element))
(declare-fun a_1223 () (Array Index Element))
(declare-fun a_1225 () (Array Index Element))
(declare-fun a_1227 () (Array Index Element))
(declare-fun a_1229 () (Array Index Element))
(declare-fun a_1231 () (Array Index Element))
(declare-fun a_1233 () (Array Index Element))
(declare-fun a_1235 () (Array Index Element))
(declare-fun a_1237 () (Array Index Element))
(declare-fun a_1239 () (Array Index Element))
(declare-fun a_1241 () (Array Index Element))
(declare-fun a_1243 () (Array Index Element))
(declare-fun e_1166 () Element)
(declare-fun e_1168 () Element)
(declare-fun e_1170 () Element)
(declare-fun e_1172 () Element)
(declare-fun e_1174 () Element)
(declare-fun e_1176 () Element)
(declare-fun e_1178 () Element)
(declare-fun e_1180 () Element)
(declare-fun e_1182 () Element)
(declare-fun e_1184 () Element)
(declare-fun e_1186 () Element)
(declare-fun e_1188 () Element)
(declare-fun e_1190 () Element)
(declare-fun e_1192 () Element)
(declare-fun e_1194 () Element)
(declare-fun e_1196 () Element)
(declare-fun e_1198 () Element)
(declare-fun e_1200 () Element)
(declare-fun e_1202 () Element)
(declare-fun e_1204 () Element)
(declare-fun e_1208 () Element)
(declare-fun e_1210 () Element)
(declare-fun e_1212 () Element)
(declare-fun e_1214 () Element)
(declare-fun e_1216 () Element)
(declare-fun e_1218 () Element)
(declare-fun e_1220 () Element)
(declare-fun e_1222 () Element)
(declare-fun e_1224 () Element)
(declare-fun e_1226 () Element)
(declare-fun e_1228 () Element)
(declare-fun e_1230 () Element)
(declare-fun e_1232 () Element)
(declare-fun e_1234 () Element)
(declare-fun e_1236 () Element)
(declare-fun e_1238 () Element)
(declare-fun e_1240 () Element)
(declare-fun e_1242 () Element)
(declare-fun a1 () (Array Index Element))
(declare-fun i0 () Index)
(declare-fun i1 () Index)
(declare-fun i2 () Index)
(declare-fun i3 () Index)
(declare-fun i4 () Index)
(declare-fun i5 () Index)
(declare-fun i7 () Index)
(declare-fun i8 () Index)
(declare-fun i9 () Index)
(assert (= a_1167 (store a1 i8 e_1166)))
(assert (= a_1169 (store a_1167 i0 e_1168)))
(assert (= a_1171 (store a_1169 i4 e_1170)))
(assert (= a_1173 (store a_1171 i5 e_1172)))
(assert (= a_1175 (store a_1173 i9 e_1174)))
(assert (= a_1177 (store a_1175 i2 e_1176)))
(assert (= a_1179 (store a_1177 i5 e_1178)))
(assert (= a_1181 (store a_1179 i4 e_1180)))
(assert (= a_1183 (store a_1181 i3 e_1182)))
(assert (= a_1185 (store a_1183 i0 e_1184)))
(assert (= a_1187 (store a_1185 i3 e_1186)))
(assert (= a_1189 (store a_1187 i4 e_1188)))
(assert (= a_1191 (store a_1189 i9 e_1190)))
(assert (= a_1193 (store a_1191 i7 e_1192)))
(assert (= a_1195 (store a_1193 i5 e_1194)))
(assert (= a_1197 (store a_1195 i1 e_1196)))
(assert (= a_1199 (store a_1197 i8 e_1198)))
(assert (= a_1201 (store a_1199 i1 e_1200)))
(assert (= a_1203 (store a_1201 i5 e_1202)))
(assert (= a_1205 (store a_1203 i7 e_1204)))
(assert (= a_1206 (store a1 i0 e_1168)))
(assert (= a_1207 (store a_1206 i8 e_1166)))
(assert (= a_1209 (store a_1207 i5 e_1208)))
(assert (= a_1211 (store a_1209 i4 e_1210)))
(assert (= a_1213 (store a_1211 i9 e_1212)))
(assert (= a_1215 (store a_1213 i2 e_1214)))
(assert (= a_1217 (store a_1215 i4 e_1216)))
(assert (= a_1219 (store a_1217 i5 e_1218)))
(assert (= a_1221 (store a_1219 i0 e_1220)))
(assert (= a_1223 (store a_1221 i3 e_1222)))
(assert (= a_1225 (store a_1223 i3 e_1224)))
(assert (= a_1227 (store a_1225 i4 e_1226)))
(assert (= a_1229 (store a_1227 i7 e_1228)))
(assert (= a_1231 (store a_1229 i9 e_1230)))
(assert (= a_1233 (store a_1231 i1 e_1232)))
(assert (= a_1235 (store a_1233 i5 e_1234)))
(assert (= a_1237 (store a_1235 i8 e_1236)))
(assert (= a_1239 (store a_1237 i1 e_1238)))
(assert (= a_1241 (store a_1239 i7 e_1240)))
(assert (= a_1243 (store a_1241 i5 e_1242)))
(assert (= e_1166 (select a1 i0)))
(assert (= e_1168 (select a1 i8)))
(assert (= e_1170 (select a_1169 i5)))
(assert (= e_1172 (select a_1169 i4)))
(assert (= e_1174 (select a_1173 i2)))
(assert (= e_1176 (select a_1173 i9)))
(assert (= e_1178 (select a_1177 i4)))
(assert (= e_1180 (select a_1177 i5)))
(assert (= e_1182 (select a_1181 i0)))
(assert (= e_1184 (select a_1181 i3)))
(assert (= e_1186 (select a_1185 i4)))
(assert (= e_1188 (select a_1185 i3)))
(assert (= e_1190 (select a_1189 i7)))
(assert (= e_1192 (select a_1189 i9)))
(assert (= e_1194 (select a_1193 i1)))
(assert (= e_1196 (select a_1193 i5)))
(assert (= e_1198 (select a_1197 i1)))
(assert (= e_1200 (select a_1197 i8)))
(assert (= e_1202 (select a_1201 i7)))
(assert (= e_1204 (select a_1201 i5)))
(assert (= e_1208 (select a_1207 i4)))
(assert (= e_1210 (select a_1207 i5)))
(assert (= e_1212 (select a_1211 i2)))
(assert (= e_1214 (select a_1211 i9)))
(assert (= e_1216 (select a_1215 i5)))
(assert (= e_1218 (select a_1215 i4)))
(assert (= e_1220 (select a_1219 i3)))
(assert (= e_1222 (select a_1219 i0)))
(assert (= e_1224 (select a_1223 i4)))
(assert (= e_1226 (select a_1223 i3)))
(assert (= e_1228 (select a_1227 i9)))
(assert (= e_1230 (select a_1227 i7)))
(assert (= e_1232 (select a_1231 i5)))
(assert (= e_1234 (select a_1231 i1)))
(assert (= e_1236 (select a_1235 i1)))
(assert (= e_1238 (select a_1235 i8)))
(assert (= e_1240 (select a_1239 i5)))
(assert (= e_1242 (select a_1239 i7)))
(assert (not (= a_1205 a_1243)))
(check-sat)
(exit)
